NAME : rbg358.693.tour
COMMENT : Length = 693
COMMENT : Found by LKH [Keld Helsgaun] Sat May 25 06:41:20 2013
TYPE : TOUR
DIMENSION : 72
TOUR_SECTION
248
218
202
178
341
302
151
180
349
143
110
326
108
149
162
342
49
44
216
251
8
16
26
3
58
37
119
215
141
111
60
179
266
211
185
320
116
322
109
93
276
343
14
122
204
75
155
15
159
344
11
253
336
9
24
213
188
101
89
195
68
112
171
18
118
163
191
10
69
125
6
42
-1
EOF
